
ASes= { 1, 2, 3, 4, 5, 6, 7, 8, 9, 10, 11 } ;


Objects= { 1, 2, 3, 4, 5, 6, 7, 8, 9, 10, 11, 12, 13, 14, 15, 16, 17, 18, 19, 20, 21, 22, 23, 24, 25, 26, 27, 28, 29, 30, 31, 32, 33, 34, 35, 36, 37, 38, 39, 40, 41, 42, 43, 44, 45, 46, 47, 48, 49, 50, 51, 52, 53, 54, 55, 56, 57, 58, 59, 60, 61, 62, 63, 64, 65, 66, 67, 68, 69, 70, 71, 72, 73, 74, 75, 76, 77, 78, 79, 80, 81, 82, 83, 84, 85, 86, 87, 88, 89, 90, 91, 92, 93, 94, 95, 96, 97, 98, 99, 100 } ;


QualityLevels= { 0, 1, 2, 3, 4, 5 } ;

Arcs = {<2,1,490000>, <1,2,490000>, <11,1,490000>, <1,11,490000>, <11,2,490000>, <2,11,490000>, <11,10,490000>, <10,11,490000>, <3,2,490000>, <2,3,490000>, <4,3,490000>, <3,4,490000>, <5,4,490000>, <4,5,490000>, <6,5,490000>, <5,6,490000>, <7,6,490000>, <6,7,490000>, <8,4,490000>, <4,8,490000>, <8,7,490000>, <7,8,490000>, <9,3,490000>, <3,9,490000>, <9,8,490000>, <8,9,490000>, <10,9,490000>, <9,10,490000>};


RatePerQuality= [ 0  300  700  1500  2500  3500 ] ;


CacheSpacePerQuality= [ 10000  11.25  26.25  56.25  93.75  131.25 ] ;


UtilityPerQuality= [ 0  0.2  0.4  0.6  0.8  1 ] ;


ObjectsPublishedByProducers=[ [ 0  0  0  0  0  0  0  1  0  0  0 ]  [ 0  0  0  0  0  0  0  1  0  0  0 ]  [ 0  0  0  0  0  0  0  1  0  0  0 ]  [ 0  0  0  0  0  0  0  1  0  0  0 ]  [ 0  0  0  0  0  0  0  1  0  0  0 ]  [ 0  0  0  0  0  0  0  1  0  0  0 ]  [ 0  0  0  0  0  0  0  1  0  0  0 ]  [ 0  0  0  0  0  0  0  1  0  0  0 ]  [ 0  0  0  0  0  0  0  1  0  0  0 ]  [ 0  0  0  0  0  0  0  1  0  0  0 ]  [ 0  0  0  0  0  0  0  1  0  0  0 ]  [ 0  0  0  0  0  0  0  1  0  0  0 ]  [ 0  0  0  0  0  0  0  1  0  0  0 ]  [ 0  0  0  0  0  0  0  1  0  0  0 ]  [ 0  0  0  0  0  0  0  1  0  0  0 ]  [ 0  0  0  0  0  0  0  1  0  0  0 ]  [ 0  0  0  0  0  0  0  1  0  0  0 ]  [ 0  0  0  0  0  0  0  1  0  0  0 ]  [ 0  0  0  0  0  0  0  1  0  0  0 ]  [ 0  0  0  0  0  0  0  1  0  0  0 ]  [ 0  0  0  0  0  0  0  1  0  0  0 ]  [ 0  0  0  0  0  0  0  1  0  0  0 ]  [ 0  0  0  0  0  0  0  1  0  0  0 ]  [ 0  0  0  0  0  0  0  1  0  0  0 ]  [ 0  0  0  0  0  0  0  1  0  0  0 ]  [ 0  0  0  0  0  0  0  1  0  0  0 ]  [ 0  0  0  0  0  0  0  1  0  0  0 ]  [ 0  0  0  0  0  0  0  1  0  0  0 ]  [ 0  0  0  0  0  0  0  1  0  0  0 ]  [ 0  0  0  0  0  0  0  1  0  0  0 ]  [ 0  0  0  0  0  0  0  1  0  0  0 ]  [ 0  0  0  0  0  0  0  1  0  0  0 ]  [ 0  0  0  0  0  0  0  1  0  0  0 ]  [ 0  0  0  0  0  0  0  1  0  0  0 ]  [ 0  0  0  0  0  0  0  1  0  0  0 ]  [ 0  0  0  0  0  0  0  1  0  0  0 ]  [ 0  0  0  0  0  0  0  1  0  0  0 ]  [ 0  0  0  0  0  0  0  1  0  0  0 ]  [ 0  0  0  0  0  0  0  1  0  0  0 ]  [ 0  0  0  0  0  0  0  1  0  0  0 ]  [ 0  0  0  0  0  0  0  1  0  0  0 ]  [ 0  0  0  0  0  0  0  1  0  0  0 ]  [ 0  0  0  0  0  0  0  1  0  0  0 ]  [ 0  0  0  0  0  0  0  1  0  0  0 ]  [ 0  0  0  0  0  0  0  1  0  0  0 ]  [ 0  0  0  0  0  0  0  1  0  0  0 ]  [ 0  0  0  0  0  0  0  1  0  0  0 ]  [ 0  0  0  0  0  0  0  1  0  0  0 ]  [ 0  0  0  0  0  0  0  1  0  0  0 ]  [ 0  0  0  0  0  0  0  1  0  0  0 ]  [ 0  0  0  0  0  0  0  1  0  0  0 ]  [ 0  0  0  0  0  0  0  1  0  0  0 ]  [ 0  0  0  0  0  0  0  1  0  0  0 ]  [ 0  0  0  0  0  0  0  1  0  0  0 ]  [ 0  0  0  0  0  0  0  1  0  0  0 ]  [ 0  0  0  0  0  0  0  1  0  0  0 ]  [ 0  0  0  0  0  0  0  1  0  0  0 ]  [ 0  0  0  0  0  0  0  1  0  0  0 ]  [ 0  0  0  0  0  0  0  1  0  0  0 ]  [ 0  0  0  0  0  0  0  1  0  0  0 ]  [ 0  0  0  0  0  0  0  1  0  0  0 ]  [ 0  0  0  0  0  0  0  1  0  0  0 ]  [ 0  0  0  0  0  0  0  1  0  0  0 ]  [ 0  0  0  0  0  0  0  1  0  0  0 ]  [ 0  0  0  0  0  0  0  1  0  0  0 ]  [ 0  0  0  0  0  0  0  1  0  0  0 ]  [ 0  0  0  0  0  0  0  1  0  0  0 ]  [ 0  0  0  0  0  0  0  1  0  0  0 ]  [ 0  0  0  0  0  0  0  1  0  0  0 ]  [ 0  0  0  0  0  0  0  1  0  0  0 ]  [ 0  0  0  0  0  0  0  1  0  0  0 ]  [ 0  0  0  0  0  0  0  1  0  0  0 ]  [ 0  0  0  0  0  0  0  1  0  0  0 ]  [ 0  0  0  0  0  0  0  1  0  0  0 ]  [ 0  0  0  0  0  0  0  1  0  0  0 ]  [ 0  0  0  0  0  0  0  1  0  0  0 ]  [ 0  0  0  0  0  0  0  1  0  0  0 ]  [ 0  0  0  0  0  0  0  1  0  0  0 ]  [ 0  0  0  0  0  0  0  1  0  0  0 ]  [ 0  0  0  0  0  0  0  1  0  0  0 ]  [ 0  0  0  0  0  0  0  1  0  0  0 ]  [ 0  0  0  0  0  0  0  1  0  0  0 ]  [ 0  0  0  0  0  0  0  1  0  0  0 ]  [ 0  0  0  0  0  0  0  1  0  0  0 ]  [ 0  0  0  0  0  0  0  1  0  0  0 ]  [ 0  0  0  0  0  0  0  1  0  0  0 ]  [ 0  0  0  0  0  0  0  1  0  0  0 ]  [ 0  0  0  0  0  0  0  1  0  0  0 ]  [ 0  0  0  0  0  0  0  1  0  0  0 ]  [ 0  0  0  0  0  0  0  1  0  0  0 ]  [ 0  0  0  0  0  0  0  1  0  0  0 ]  [ 0  0  0  0  0  0  0  1  0  0  0 ]  [ 0  0  0  0  0  0  0  1  0  0  0 ]  [ 0  0  0  0  0  0  0  1  0  0  0 ]  [ 0  0  0  0  0  0  0  1  0  0  0 ]  [ 0  0  0  0  0  0  0  1  0  0  0 ]  [ 0  0  0  0  0  0  0  1  0  0  0 ]  [ 0  0  0  0  0  0  0  1  0  0  0 ]  [ 0  0  0  0  0  0  0  1  0  0  0 ]  [ 0  0  0  0  0  0  0  1  0  0  0 ] ];

ObjRequests = {  <1,5,346>, <2,5,2>, <3,5,95>, <4,5,107>, <5,5,14>, <6,5,10>, <7,5,2>, <8,5,8>, <9,5,29>, <10,5,39>, <11,5,36>, <12,5,7>, <13,5,3>, <14,5,20>, <15,5,22>, <16,5,5>, <17,5,1>, <18,5,9>, <19,5,16>, <20,5,1>, <21,5,11>, <22,5,19>, <23,5,13>, <24,5,4>, <25,5,3>, <26,5,12>, <27,5,1>, <28,5,7>, <29,5,1>, <30,5,8>, <31,5,11>, <32,5,14>, <33,5,8>, <34,5,1>, <35,5,8>, <36,5,7>, <37,5,3>, <38,5,1>, <40,5,3>, <41,5,3>, <42,5,8>, <43,5,1>, <44,5,6>, <45,5,2>, <47,5,5>, <48,5,7>, <50,5,1>, <52,5,8>, <53,5,2>, <54,5,2>, <55,5,7>, <57,5,1>, <58,5,3>, <59,5,3>, <61,5,2>, <62,5,1>, <63,5,6>, <64,5,1>, <65,5,5>, <66,5,7>, <67,5,3>, <68,5,3>, <69,5,3>, <70,5,3>, <71,5,1>, <72,5,1>, <73,5,5>, <75,5,1>, <76,5,6>, <77,5,1>, <78,5,3>, <80,5,2>, <81,5,2>, <82,5,1>, <83,5,2>, <86,5,6>, <87,5,2>, <88,5,1>, <91,5,5>, <92,5,10>, <93,5,1>, <94,5,2>, <95,5,2>, <96,5,6>, <97,5,5>, <98,5,4>, <99,5,2>, <1,6,196>, <2,6,7>, <3,6,22>, <4,6,15>, <5,6,14>, <6,6,10>, <7,6,40>, <8,6,8>, <9,6,2>, <10,6,8>, <11,6,11>, <12,6,4>, <13,6,6>, <14,6,10>, <16,6,3>, <17,6,8>, <18,6,7>, <19,6,1>, <21,6,28>, <23,6,12>, <24,6,1>, <25,6,1>, <26,6,1>, <27,6,5>, <28,6,2>, <29,6,16>, <30,6,1>, <31,6,3>, <32,6,3>, <34,6,2>, <35,6,2>, <36,6,8>, <37,6,8>, <39,6,7>, <40,6,2>, <42,6,3>, <43,6,3>, <44,6,2>, <45,6,5>, <46,6,4>, <47,6,9>, <48,6,6>, <49,6,4>, <50,6,5>, <51,6,2>, <52,6,3>, <53,6,5>, <54,6,3>, <56,6,3>, <57,6,7>, <58,6,4>, <59,6,2>, <60,6,1>, <61,6,2>, <62,6,1>, <63,6,4>, <64,6,1>, <65,6,4>, <66,6,5>, <67,6,5>, <69,6,1>, <70,6,4>, <71,6,3>, <73,6,3>, <74,6,4>, <75,6,3>, <77,6,1>, <78,6,1>, <80,6,1>, <83,6,3>, <84,6,5>, <85,6,2>, <86,6,2>, <87,6,5>, <88,6,2>, <90,6,3>, <92,6,3>, <94,6,2>, <95,6,1>, <96,6,1>, <98,6,2>, <99,6,2>, <100,6,1>, <1,7,74>, <2,7,326>, <3,7,84>, <4,7,22>, <5,7,40>, <6,7,52>, <7,7,24>, <8,7,2>, <9,7,1>, <10,7,1>, <11,7,9>, <12,7,42>, <13,7,17>, <14,7,22>, <15,7,4>, <16,7,18>, <17,7,35>, <18,7,11>, <19,7,5>, <20,7,6>, <21,7,2>, <22,7,6>, <24,7,1>, <25,7,1>, <26,7,2>, <27,7,9>, <28,7,18>, <29,7,12>, <30,7,1>, <32,7,1>, <33,7,6>, <34,7,5>, <35,7,5>, <36,7,2>, <37,7,5>, <40,7,2>, <43,7,3>, <44,7,2>, <45,7,2>, <46,7,4>, <48,7,2>, <49,7,5>, <50,7,3>, <52,7,2>, <53,7,4>, <54,7,5>, <55,7,3>, <56,7,3>, <58,7,3>, <60,7,1>, <61,7,1>, <62,7,3>, <63,7,9>, <64,7,1>, <65,7,2>, <66,7,1>, <67,7,2>, <69,7,2>, <70,7,2>, <71,7,6>, <72,7,9>, <74,7,1>, <75,7,1>, <76,7,3>, <77,7,3>, <80,7,3>, <81,7,4>, <82,7,1>, <83,7,1>, <84,7,2>, <85,7,2>, <87,7,1>, <88,7,2>, <89,7,1>, <90,7,3>, <92,7,1>, <93,7,1>, <94,7,1>, <97,7,2>, <98,7,1>, <99,7,5>, <100,7,1>, <1,1,85>, <2,1,39>, <3,1,25>, <4,1,37>, <5,1,69>, <6,1,5>, <7,1,32>, <8,1,13>, <9,1,6>, <10,1,17>, <11,1,3>, <12,1,4>, <13,1,6>, <15,1,12>, <16,1,2>, <17,1,4>, <18,1,14>, <19,1,1>, <20,1,7>, <21,1,1>, <22,1,6>, <23,1,4>, <24,1,4>, <25,1,6>, <26,1,10>, <27,1,3>, <28,1,3>, <29,1,2>, <30,1,6>, <31,1,3>, <32,1,9>, <33,1,7>, <34,1,3>, <35,1,5>, <36,1,5>, <38,1,13>, <39,1,3>, <40,1,9>, <41,1,8>, <42,1,2>, <43,1,14>, <44,1,2>, <45,1,10>, <46,1,3>, <47,1,4>, <48,1,2>, <49,1,6>, <50,1,7>, <51,1,6>, <52,1,1>, <53,1,1>, <54,1,1>, <55,1,2>, <56,1,1>, <57,1,11>, <58,1,5>, <59,1,3>, <60,1,2>, <62,1,3>, <63,1,4>, <64,1,4>, <65,1,4>, <66,1,2>, <67,1,3>, <69,1,1>, <70,1,2>, <71,1,5>, <73,1,3>, <74,1,2>, <75,1,2>, <76,1,5>, <77,1,2>, <78,1,2>, <79,1,5>, <80,1,2>, <82,1,1>, <84,1,3>, <85,1,1>, <86,1,6>, <87,1,1>, <89,1,7>, <91,1,1>, <93,1,4>, <95,1,1>, <96,1,2>, <98,1,5>, <99,1,1>, <100,1,2>, <1,10,113>, <2,10,2>, <3,10,32>, <4,10,20>, <5,10,6>, <6,10,58>, <7,10,10>, <8,10,52>, <9,10,51>, <10,10,5>, <11,10,10>, <12,10,11>, <13,10,23>, <14,10,1>, <15,10,13>, <16,10,32>, <17,10,7>, <18,10,7>, <19,10,21>, <20,10,22>, <21,10,4>, <22,10,1>, <23,10,2>, <24,10,18>, <25,10,13>, <27,10,9>, <28,10,2>, <29,10,4>, <30,10,8>, <31,10,5>, <33,10,7>, <34,10,4>, <35,10,3>, <36,10,2>, <37,10,2>, <38,10,5>, <39,10,2>, <40,10,3>, <41,10,6>, <42,10,6>, <43,10,3>, <44,10,2>, <45,10,2>, <46,10,7>, <47,10,4>, <50,10,1>, <51,10,10>, <52,10,1>, <53,10,1>, <54,10,4>, <55,10,3>, <56,10,2>, <59,10,6>, <60,10,3>, <61,10,5>, <62,10,1>, <63,10,1>, <64,10,8>, <65,10,2>, <66,10,2>, <68,10,2>, <70,10,1>, <71,10,1>, <73,10,1>, <74,10,4>, <75,10,4>, <76,10,1>, <77,10,3>, <78,10,2>, <79,10,5>, <80,10,2>, <81,10,2>, <84,10,1>, <85,10,4>, <86,10,2>, <87,10,1>, <88,10,1>, <89,10,3>, <90,10,3>, <91,10,2>, <95,10,1>, <96,10,1>, <97,10,5>, <99,10,2>, <100,10,1> };

MaxCacheStorageAtSingleAS= [ 131.25  131.25  131.25  131.25  131.25  131.25  131.25  131.25  131.25  131.25  131.25 ] ;

MaxCacheStorage = 1443.75 ;
SolutionGap = 0.01 ;
